c Exact Cover generated CNF. n=7 S=[[1, 5, 6, 7], [1, 3, 5, 6, 7], [5, 7], [1, 2, 3, 4, 5, 6], [1, 2, 3, 4, 5, 6, 7]]
p cnf 12 63
1 0
2 0
3 0
4 0
5 0
6 0
7 0
-8 1 0
-8 5 0
-8 6 0
-8 7 0
-9 1 0
-9 3 0
-9 5 0
-9 6 0
-9 7 0
-10 5 0
-10 7 0
-11 1 0
-11 2 0
-11 3 0
-11 4 0
-11 5 0
-11 6 0
-12 1 0
-12 2 0
-12 3 0
-12 4 0
-12 5 0
-12 6 0
-12 7 0
-1 8 9 11 12 0
-2 11 12 0
-3 9 11 12 0
-4 11 12 0
-5 8 9 10 11 12 0
-6 8 9 11 12 0
-7 8 9 10 12 0
-8 -8 0
-8 -9 0
-8 -10 0
-8 -11 0
-8 -12 0
-9 -8 0
-9 -9 0
-9 -10 0
-9 -11 0
-9 -12 0
-10 -8 0
-10 -9 0
-10 -10 0
-10 -11 0
-10 -12 0
-11 -8 0
-11 -9 0
-11 -10 0
-11 -11 0
-11 -12 0
-12 -8 0
-12 -9 0
-12 -10 0
-12 -11 0
-12 -12 0
